0000000000000000
0000000000000000
0000000000000000
0000011000000000
0000011100000000
0000000111000000
0000000010000000
0000000010000000
0000000010000000
0000000001100000
0000000011100000
0000011101000000
0000011001000000
0000100000100000
0000000000000000
0000000000000000
